4
8
20
1 1.3 1.55 1.75 2.1
23 46 32 5 19 23 20 19 45 29 35 28 28 49 42 15 45 48 22 43 20 13 48 38 15 36 15 8 22 46 17 39 40 16 26 44 38 21 17 12 33 21 7 28 43 45 16 39 15 38 21 27 27 45 6 7 5 12 44 9 14 5 9 33 46 42 22 47 37 17 30 5 29 8 44 32 41 13 18 30 15 27 32 25 38 8 15 6 23 15 10 27 15 25 25 30 30 43 23 10 40 47 18 35 45 29 43 42 37 6 14 27 21 5 7 5 6 23 38 25 27 22 22 44 46 40 26 7 22 48 49 5 30 37 32 16 14 7 21 15 22 16 40 35 45 43 5 8 5 12 24 45 31 15 37 37 21 5 5 49 